(set-option :print-success false)
(set-logic QF_UF)
(declare-sort x90 0)
(declare-sort x18 0)
(declare-fun x36 (x18 x18) x18)
(declare-fun x25 () x18)
(declare-fun x136 () x18)
(declare-fun x79 () x18)
(declare-fun x146 () x18)
(declare-fun x101 () x18)
(assert (not (and (and (= x136 (x36 x25 x25)) (and (= x79 (x36 x25 x146)) (= x25 (x36 x101 x101)))) (= (x36 x136 x101) x146))))
(assert (not (and (and (and (= (x36 x79 x146) x25) (= (x36 x101 x101) x79)) (= (x36 x79 x79) x136)) (= x146 (x36 x136 x101)))))
(assert (not (and (and (= x146 (x36 x79 x79)) (and (= (x36 x79 x25) x136) (= x79 (x36 x101 x101)))) (= x25 (x36 x146 x101)))))
(assert (not (and (and (and (= x25 (x36 x79 x79)) (= x146 (x36 x25 x101))) (= (x36 x25 x25) x136)) (= (x36 x136 x79) x101))))
(assert (not (and (= x101 (x36 x146 x136)) (and (and (= (x36 x79 x101) x25) (= (x36 x136 x136) x79)) (= (x36 x79 x79) x146)))))
(assert (not (and (= (x36 x136 x79) x25) (and (= (x36 x146 x146) x136) (and (= x101 (x36 x146 x25)) (= (x36 x79 x79) x146))))))
(assert (not (and (= (x36 x79 x146) x101) (and (= (x36 x136 x136) x79) (and (= x25 (x36 x136 x101)) (= (x36 x146 x146) x136))))))
(assert (not (and (and (and (= x146 (x36 x25 x25)) (= x136 (x36 x146 x79))) (= (x36 x146 x146) x101)) (= (x36 x101 x25) x79))))
(assert (not (and (= x79 (x36 x136 x25)) (and (and (= (x36 x25 x25) x146) (= x101 (x36 x146 x79))) (= (x36 x146 x146) x136)))))
(assert (not (and (and (and (= x101 (x36 x25 x146)) (= x25 (x36 x79 x79))) (= (x36 x25 x25) x136)) (= x146 (x36 x136 x79)))))
(assert (not (and (= x101 (x36 x136 x146)) (and (= (x36 x25 x25) x136) (and (= x25 (x36 x146 x146)) (= (x36 x25 x101) x79))))))
(assert (not (and (and (= (x36 x136 x136) x101) (and (= (x36 x79 x79) x136) (= (x36 x136 x25) x146))) (= x25 (x36 x101 x79)))))
(assert (not (and (and (and (= (x36 x101 x79) x136) (= x101 (x36 x146 x146))) (= x25 (x36 x101 x101))) (= (x36 x25 x146) x79))))
(assert (not (and (= x136 (x36 x25 x79)) (and (and (= (x36 x101 x136) x146) (= x101 (x36 x79 x79))) (= x25 (x36 x101 x101))))))
(assert (not (and (and (= x79 (x36 x136 x136)) (and (= x146 (x36 x136 x101)) (= (x36 x25 x25) x136))) (= x101 (x36 x79 x25)))))
(assert (not (and (= x79 (x36 x136 x101)) (and (and (= x146 (x36 x101 x101)) (= x25 (x36 x146 x79))) (= x136 (x36 x146 x146))))))
(assert (not (and (and (= x79 (x36 x101 x101)) (and (= x146 (x36 x101 x136)) (= (x36 x25 x25) x101))) (= (x36 x79 x25) x136))))
(assert (not (and (and (and (= x25 (x36 x101 x146)) (= (x36 x79 x79) x101)) (= x136 (x36 x101 x101))) (= x146 (x36 x136 x79)))))
(assert (not (and (= x79 (x36 x101 x146)) (and (= (x36 x25 x25) x101) (and (= x136 (x36 x25 x79)) (= (x36 x146 x146) x25))))))
(assert (not (and (= x136 (x36 x25 x79)) (and (and (= x101 (x36 x146 x136)) (= x146 (x36 x79 x79))) (= (x36 x146 x146) x25)))))
(assert (not (and (and (and (= (x36 x101 x101) x136) (= (x36 x136 x25) x79)) (= (x36 x136 x136) x146)) (= (x36 x146 x101) x25))))
(assert (not (and (and (and (= x146 (x36 x79 x101)) (= (x36 x25 x25) x79)) (= x136 (x36 x79 x79))) (= (x36 x136 x25) x101))))
(assert (not (and (= (x36 x136 x25) x146) (and (= x136 (x36 x79 x79)) (and (= x79 (x36 x25 x25)) (= x101 (x36 x79 x146)))))))
(assert (not (and (= (x36 x101 x146) x25) (and (and (= x79 (x36 x136 x25)) (= (x36 x146 x146) x136)) (= (x36 x136 x136) x101)))))
(assert (not (and (= (x36 x79 x136) x146) (and (= (x36 x25 x25) x79) (and (= x25 (x36 x136 x136)) (= (x36 x25 x146) x101))))))
(assert (not (and (= x136 (x36 x25 x101)) (and (and (= x79 (x36 x146 x136)) (= x146 (x36 x101 x101))) (= (x36 x146 x146) x25)))))
(assert (not (and (= x25 (x36 x136 x79)) (and (= (x36 x101 x101) x136) (and (= x101 (x36 x79 x79)) (= (x36 x101 x25) x146))))))
(assert (and (and (and (and (not (= x79 x146)) (and (not (= x79 x25)) (and (and (and (not (= x25 x136)) (and (not (= x101 x136)) (not (= x136 x79)))) (not (= x146 x136))) (not (= x79 x101))))) (not (= x25 x101))) (not (= x101 x146))) (not (= x146 x25))))
(assert (not (and (= x146 (x36 x25 x136)) (and (and (= (x36 x136 x136) x79) (= x101 (x36 x79 x146))) (= x25 (x36 x79 x79))))))
(assert (not (and (and (= (x36 x101 x101) x136) (and (= x101 (x36 x146 x146)) (= x79 (x36 x101 x25)))) (= (x36 x136 x146) x25))))
(assert (not (and (and (= x136 (x36 x25 x25)) (and (= (x36 x146 x146) x25) (= (x36 x25 x79) x101))) (= x79 (x36 x136 x146)))))
(assert (not (and (= x146 (x36 x101 x79)) (and (and (= (x36 x136 x146) x25) (= x136 (x36 x79 x79))) (= (x36 x136 x136) x101)))))
(assert (not (and (= (x36 x136 x101) x25) (and (and (= (x36 x146 x25) x79) (= x146 (x36 x101 x101))) (= x136 (x36 x146 x146))))))
(assert (not (and (= x146 (x36 x25 x101)) (and (= x25 (x36 x79 x79)) (and (= x79 (x36 x101 x101)) (= (x36 x79 x146) x136))))))
(assert (not (and (= x79 (x36 x101 x146)) (and (= x101 (x36 x136 x136)) (and (= x25 (x36 x136 x79)) (= x136 (x36 x146 x146)))))))
(assert (not (and (= (x36 x146 x79) x25) (and (= x146 (x36 x136 x136)) (and (= x101 (x36 x136 x25)) (= x136 (x36 x79 x79)))))))
(assert (not (and (= (x36 x101 x136) x146) (and (= (x36 x79 x79) x101) (and (= x25 (x36 x79 x146)) (= (x36 x136 x136) x79))))))
(assert (not (and (= x25 (x36 x79 x101)) (and (and (= x136 (x36 x146 x25)) (= (x36 x101 x101) x146)) (= x79 (x36 x146 x146))))))
(assert (and (and (and (or (= x101 (x36 (x36 x146 x101) x146)) (or (= x101 (x36 (x36 x25 x101) x25)) (or (= x101 (x36 (x36 x101 x101) x101)) (or (= (x36 (x36 x136 x101) x136) x101) (= (x36 (x36 x79 x101) x79) x101))))) (and (or (or (= x136 (x36 (x36 x25 x136) x25)) (or (= x136 (x36 (x36 x101 x136) x101)) (or (= (x36 (x36 x79 x136) x79) x136) (= x136 (x36 (x36 x136 x136) x136))))) (= x136 (x36 (x36 x146 x136) x146))) (or (or (or (or (= x79 (x36 (x36 x79 x79) x79)) (= (x36 (x36 x136 x79) x136) x79)) (= x79 (x36 (x36 x101 x79) x101))) (= (x36 (x36 x25 x79) x25) x79)) (= x79 (x36 (x36 x146 x79) x146))))) (or (or (= (x36 (x36 x25 x25) x25) x25) (or (or (= x25 (x36 (x36 x79 x25) x79)) (= x25 (x36 (x36 x136 x25) x136))) (= x25 (x36 (x36 x101 x25) x101)))) (= (x36 (x36 x146 x25) x146) x25))) (or (= (x36 (x36 x146 x146) x146) x146) (or (or (= x146 (x36 (x36 x101 x146) x101)) (or (= (x36 (x36 x136 x146) x136) x146) (= x146 (x36 (x36 x79 x146) x79)))) (= x146 (x36 (x36 x25 x146) x25))))))
(assert (not (and (and (and (= x136 (x36 x101 x101)) (= (x36 x136 x146) x79)) (= (x36 x136 x136) x25)) (= (x36 x25 x101) x146))))
(assert (not (and (and (and (= x136 (x36 x146 x146)) (= (x36 x136 x79) x101)) (= x25 (x36 x136 x136))) (= (x36 x25 x146) x79))))
(assert (not (and (and (and (= (x36 x101 x146) x136) (= (x36 x25 x25) x101)) (= x79 (x36 x101 x101))) (= (x36 x79 x25) x146))))
(assert (not (and (= (x36 x146 x136) x79) (and (= (x36 x101 x101) x146) (and (= x101 (x36 x136 x136)) (= (x36 x101 x79) x25))))))
(assert (or (not (= (x36 (x36 x146 x146) x146) x146)) (or (or (or (not (= x79 (x36 (x36 x79 x79) x79))) (not (= (x36 (x36 x136 x136) x136) x136))) (not (= (x36 (x36 x101 x101) x101) x101))) (not (= (x36 (x36 x25 x25) x25) x25)))))
(assert (not (and (and (= x136 (x36 x101 x101)) (and (= x101 (x36 x146 x146)) (= (x36 x101 x79) x25))) (= x79 (x36 x136 x146)))))
(assert (or (or (and (and (not (= (x36 (x36 x25 x25) x25) x25)) (and (not (= x101 (x36 (x36 x25 x101) x25))) (and (not (= (x36 (x36 x25 x79) x25) x79)) (not (= x136 (x36 (x36 x25 x136) x25)))))) (not (= (x36 (x36 x25 x146) x25) x146))) (or (or (and (and (and (and (not (= (x36 (x36 x136 x79) x136) x79)) (not (= x136 (x36 (x36 x136 x136) x136)))) (not (= (x36 (x36 x136 x101) x136) x101))) (not (= (x36 (x36 x136 x25) x136) x25))) (not (= (x36 (x36 x136 x146) x136) x146))) (and (and (not (= (x36 (x36 x79 x25) x79) x25)) (and (and (not (= x136 (x36 (x36 x79 x136) x79))) (not (= x79 (x36 (x36 x79 x79) x79)))) (not (= x101 (x36 (x36 x79 x101) x79))))) (not (= x146 (x36 (x36 x79 x146) x79))))) (and (not (= x146 (x36 (x36 x101 x146) x101))) (and (not (= (x36 (x36 x101 x25) x101) x25)) (and (not (= (x36 (x36 x101 x101) x101) x101)) (and (not (= (x36 (x36 x101 x136) x101) x136)) (not (= x79 (x36 (x36 x101 x79) x101))))))))) (and (and (and (and (not (= (x36 (x36 x146 x136) x146) x136)) (not (= x79 (x36 (x36 x146 x79) x146)))) (not (= (x36 (x36 x146 x101) x146) x101))) (not (= x25 (x36 (x36 x146 x25) x146)))) (not (= (x36 (x36 x146 x146) x146) x146)))))
(assert (not (and (and (= x25 (x36 x136 x136)) (and (= (x36 x136 x79) x146) (= x136 (x36 x101 x101)))) (= (x36 x25 x101) x79))))
(assert (not (and (and (= (x36 x25 x25) x146) (and (= x25 (x36 x101 x101)) (= x79 (x36 x25 x136)))) (= (x36 x146 x101) x136))))
(assert (not (and (and (= (x36 x101 x101) x25) (and (= (x36 x146 x146) x101) (= (x36 x101 x136) x79))) (= (x36 x25 x146) x136))))
(assert (not (and (= x146 (x36 x79 x25)) (and (= x79 (x36 x136 x136)) (and (= (x36 x136 x146) x101) (= (x36 x25 x25) x136))))))
(assert (let ((x46 (x36 x25 x25)) (x33 (x36 x146 x146)) (x66 (x36 x101 x101)) (x117 (x36 x79 x79)) (x153 (x36 x136 x136))) (or (and (not (= x146 x33)) (and (not (= x46 x146)) (and (and (not (= x153 x146)) (not (= x146 x117))) (not (= x146 x66))))) (or (or (and (not (= x101 x33)) (and (and (and (not (= x101 x153)) (not (= x117 x101))) (not (= x101 x66))) (not (= x101 x46)))) (or (and (not (= x33 x79)) (and (and (not (= x66 x79)) (and (not (= x117 x79)) (not (= x79 x153)))) (not (= x46 x79)))) (and (and (and (not (= x136 x66)) (and (not (= x136 x153)) (not (= x117 x136)))) (not (= x46 x136))) (not (= x136 x33))))) (and (not (= x25 x33)) (and (not (= x46 x25)) (and (not (= x25 x66)) (and (not (= x153 x25)) (not (= x25 x117))))))))))
(assert (not (and (= (x36 x136 x25) x146) (and (and (= (x36 x25 x25) x101) (= (x36 x101 x146) x79)) (= (x36 x101 x101) x136)))))
(assert (not (and (and (= (x36 x101 x101) x25) (and (= (x36 x101 x146) x136) (= x101 (x36 x79 x79)))) (= (x36 x25 x79) x146))))
(assert (not (and (= (x36 x25 x136) x146) (and (= x25 (x36 x101 x101)) (and (= x79 (x36 x101 x146)) (= x101 (x36 x136 x136)))))))
(assert (not (and (and (and (= (x36 x101 x25) x146) (= (x36 x136 x136) x101)) (= (x36 x101 x101) x79)) (= (x36 x79 x136) x25))))
(assert (not (and (= x101 (x36 x136 x25)) (and (= (x36 x146 x146) x136) (and (= x146 (x36 x25 x25)) (= (x36 x146 x101) x79))))))
(assert (not (and (and (and (= (x36 x101 x101) x146) (= (x36 x146 x136) x25)) (= (x36 x146 x146) x79)) (= x136 (x36 x79 x101)))))
(assert (not (and (= (x36 x101 x25) x136) (and (and (= (x36 x146 x136) x79) (= (x36 x25 x25) x146)) (= x101 (x36 x146 x146))))))
(assert (not (and (and (and (= x136 (x36 x101 x79)) (= (x36 x25 x25) x101)) (= x146 (x36 x101 x101))) (= x79 (x36 x146 x25)))))
(assert (not (and (= x79 (x36 x146 x101)) (and (and (= x25 (x36 x136 x79)) (= x136 (x36 x101 x101))) (= x146 (x36 x136 x136))))))
(assert (not (and (and (and (= (x36 x101 x101) x136) (= (x36 x136 x25) x146)) (= (x36 x136 x136) x79)) (= x25 (x36 x79 x101)))))
(assert (not (and (and (and (= (x36 x146 x136) x25) (= (x36 x79 x79) x146)) (= x101 (x36 x146 x146))) (= x136 (x36 x101 x79)))))
(assert (let ((x81 (x36 x101 x146)) (x46 (x36 x25 x136)) (x132 (x36 x146 x25)) (x33 (x36 x146 x136)) (x30 (x36 x146 x146)) (x65 (x36 x79 x25)) (x100 (x36 x79 x79)) (x66 (x36 x101 x136)) (x82 (x36 x101 x25)) (x17 (x36 x136 x79)) (x73 (x36 x136 x25)) (x133 (x36 x146 x101)) (x60 (x36 x25 x25)) (x37 (x36 x101 x101)) (x121 (x36 x79 x101)) (x96 (x36 x136 x101)) (x21 (x36 x146 x79)) (x107 (x36 x101 x79)) (x117 (x36 x79 x136)) (x38 (x36 x25 x146)) (x143 (x36 x79 x146)) (x111 (x36 x136 x146)) (x28 (x36 x25 x101)) (x153 (x36 x136 x136)) (x139 (x36 x25 x79))) (and (and (and (and (and (and (and (and (not (= x139 x60)) (and (and (not (= x38 x46)) (and (not (= x60 x46)) (and (not (= x139 x46)) (not (= x46 x28))))) (not (= x28 x139)))) (not (= x139 x38))) (not (= x60 x28))) (not (= x28 x38))) (not (= x60 x38))) (and (and (not (= x81 x82)) (and (not (= x37 x81)) (and (and (not (= x107 x81)) (and (and (and (not (= x81 x66)) (and (not (= x82 x66)) (and (not (= x107 x66)) (not (= x37 x66))))) (not (= x37 x107))) (not (= x82 x107)))) (not (= x37 x82))))) (and (and (not (= x65 x143)) (and (and (not (= x65 x121)) (and (and (and (and (not (= x117 x143)) (and (and (not (= x121 x117)) (not (= x100 x117))) (not (= x117 x65)))) (not (= x100 x121))) (not (= x100 x65))) (not (= x143 x100)))) (not (= x143 x121)))) (and (not (= x111 x73)) (and (not (= x96 x111)) (and (not (= x73 x96)) (and (and (and (and (and (not (= x153 x73)) (and (not (= x153 x17)) (not (= x96 x153)))) (not (= x153 x111))) (not (= x17 x96))) (not (= x17 x73))) (not (= x17 x111))))))))) (and (and (and (and (and (and (not (= x133 x21)) (and (not (= x33 x30)) (and (not (= x33 x132)) (and (not (= x33 x21)) (not (= x133 x33)))))) (not (= x132 x21))) (not (= x30 x21))) (not (= x132 x133))) (not (= x133 x30))) (not (= x132 x30)))) (and (and (and (and (and (not (= x60 x82)) (and (not (= x65 x132)) (and (and (and (not (= x73 x132)) (and (and (not (= x73 x82)) (not (= x73 x65))) (not (= x73 x60)))) (not (= x82 x65))) (not (= x65 x60))))) (not (= x82 x132))) (not (= x132 x60))) (and (and (and (not (= x21 x139)) (and (not (= x21 x107)) (and (and (and (and (and (and (not (= x139 x17)) (and (not (= x100 x17)) (not (= x107 x17)))) (not (= x17 x21))) (not (= x100 x107))) (not (= x100 x139))) (not (= x21 x100))) (not (= x139 x107))))) (and (and (not (= x66 x33)) (and (not (= x46 x66)) (and (not (= x33 x117)) (and (and (not (= x66 x117)) (and (not (= x153 x33)) (and (not (= x46 x153)) (and (not (= x66 x153)) (not (= x117 x153)))))) (not (= x117 x46)))))) (not (= x33 x46)))) (and (not (= x28 x133)) (and (not (= x37 x133)) (and (and (and (not (= x28 x121)) (and (not (= x37 x121)) (and (and (and (not (= x96 x37)) (not (= x96 x121))) (not (= x96 x28))) (not (= x133 x96))))) (not (= x133 x121))) (not (= x37 x28))))))) (and (and (not (= x30 x81)) (and (and (and (and (and (and (not (= x38 x111)) (and (not (= x111 x143)) (not (= x81 x111)))) (not (= x30 x111))) (not (= x143 x81))) (not (= x143 x38))) (not (= x143 x30))) (not (= x81 x38)))) (not (= x30 x38)))))))
(assert (not (and (= x136 (x36 x79 x146)) (and (= (x36 x25 x25) x79) (and (= x25 (x36 x146 x146)) (= x101 (x36 x25 x136)))))))
(assert (not (and (= (x36 x101 x79) x136) (and (= (x36 x25 x25) x101) (and (= (x36 x79 x79) x25) (= (x36 x25 x136) x146))))))
(assert (let ((x143 (x36 x79 x146)) (x13 (x36 x146 x79)) (x150 (x36 x146 x25)) (x113 (x36 x146 x146)) (x33 (x36 x136 x25)) (x17 (x36 x136 x146)) (x4 (x36 x101 x101)) (x139 (x36 x101 x136)) (x66 (x36 x136 x79)) (x132 (x36 x79 x101)) (x117 (x36 x136 x136)) (x111 (x36 x79 x25)) (x46 (x36 x136 x101)) (x21 (x36 x25 x136)) (x22 (x36 x25 x25)) (x109 (x36 x25 x146)) (x47 (x36 x25 x101)) (x106 (x36 x146 x101)) (x114 (x36 x101 x146)) (x107 (x36 x79 x136)) (x96 (x36 x146 x136)) (x141 (x36 x25 x79)) (x60 (x36 x79 x79)) (x130 (x36 x101 x25)) (x30 (x36 x101 x79))) (let ((x126 (= x25 x60)) (x89 (= x146 x130)) (x87 (= x25 x4)) (x138 (= x146 x66)) (x73 (= x66 x136)) (x31 (= x96 x146)) (x9 (= x143 x101)) (x78 (= x136 x132)) (x156 (= x139 x101)) (x145 (= x141 x136)) (x97 (= x143 x25)) (x98 (= x79 x113)) (x122 (= x136 x109)) (x5 (= x114 x101)) (x3 (= x21 x79)) (x134 (= x25 x132)) (x57 (= x25 x130)) (x94 (= x25 x106)) (x119 (= x146 x22)) (x118 (= x101 x109)) (x40 (= x79 x22)) (x108 (= x79 x4)) (x14 (= x146 x111)) (x80 (= x25 x114)) (x129 (= x132 x79)) (x20 (= x130 x79)) (x123 (= x79 x150)) (x15 (= x79 x143)) (x51 (= x111 x101)) (x38 (= x60 x79)) (x140 (= x33 x136)) (x157 (= x114 x136)) (x135 (= x101 x60)) (x61 (= x111 x25)) (x26 (= x141 x25)) (x7 (= x17 x25)) (x35 (= x30 x146)) (x76 (= x136 x47)) (x104 (= x46 x136)) (x50 (= x79 x106)) (x95 (= x130 x136)) (x110 (= x109 x79)) (x153 (= x136 x117)) (x86 (= x13 x79)) (x149 (= x109 x146)) (x93 (= x17 x79)) (x77 (= x136 x113)) (x147 (= x136 x139)) (x152 (= x25 x30)) (x1 (= x13 x146)) (x148 (= x132 x146)) (x102 (= x79 x114)) (x75 (= x101 x46)) (x62 (= x4 x146)) (x69 (= x101 x47)) (x72 (= x22 x101)) (x59 (= x25 x22)) (x133 (= x107 x136)) (x71 (= x25 x33)) (x11 (= x130 x101)) (x65 (= x60 x136)) (x2 (= x106 x136)) (x128 (= x132 x101)) (x70 (= x96 x79)) (x53 (= x30 x136)) (x45 (= x66 x101)) (x52 (= x136 x22)) (x154 (= x141 x101)) (x121 (= x117 x101)) (x68 (= x143 x146)) (x41 (= x46 x146)) (x8 (= x25 x113)) (x37 (= x25 x117)) (x19 (= x33 x101)) (x116 (= x136 x96)) (x131 (= x21 x25)) (x92 (= x101 x13)) (x56 (= x150 x136)) (x81 (= x79 x66)) (x63 (= x136 x111)) (x44 (= x141 x79)) (x144 (= x25 x47)) (x84 (= x101 x107)) (x10 (= x101 x21)) (x88 (= x13 x25)) (x99 (= x47 x146)) (x28 (= x146 x117)) (x74 (= x136 x13)) (x137 (= x146 x21)) (x124 (= x150 x101)) (x49 (= x146 x114)) (x24 (= x25 x96)) (x112 (= x79 x30)) (x151 (= x101 x17)) (x67 (= x139 x79)) (x103 (= x4 x136)) (x58 (= x17 x146)) (x16 (= x46 x79)) (x29 (= x139 x25)) (x100 (= x79 x117)) (x83 (= x143 x136)) (x34 (= x46 x25)) (x91 (= x146 x107)) (x155 (= x136 x17)) (x55 (= x4 x101)) (x32 (= x146 x141)) (x120 (= x79 x47)) (x115 (= x33 x79)) (x43 (= x150 x25)) (x85 (= x146 x113)) (x12 (= x146 x150)) (x6 (= x113 x101)) (x48 (= x25 x107)) (x54 (= x101 x96)) (x158 (= x101 x106)) (x105 (= x25 x109)) (x82 (= x79 x107)) (x39 (= x30 x101)) (x42 (= x60 x146)) (x142 (= x146 x106)) (x127 (= x139 x146)) (x64 (= x136 x21)) (x23 (= x33 x146)) (x27 (= x111 x79)) (x125 (= x66 x25))) (and (and (and (and (and (and (and (or (or (or x29 (or x48 x37)) x131) x24) (or (or (or x34 (or x125 x37)) x71) x7)) (and (and (or (or x19 (or (or x45 x121) x75)) x151) (or (or x10 (or (or x121 x84) x156)) x54)) (and (and (or x93 (or x115 (or (or x100 x81) x16))) (or (or (or (or x100 x82) x67) x3) x70)) (and (or (or x64 (or x147 (or x133 x153))) x116) (or (or x140 (or (or x73 x153) x104)) x155))))) (and (or (or (or x41 (or x28 x138)) x23) x58) (or (or x137 (or (or x91 x28) x127)) x31))) (and (and (or (or x14 (or x148 (or x42 x91))) x68) (or (or (or (or x138 x42) x35) x32) x1)) (and (and (and (or (or x154 (or (or x135 x45) x39)) x92) (or (or (or (or x135 x84) x128) x51) x9)) (and (and (or (or (or x53 (or x73 x65)) x145) x74) (or (or (or x78 (or x133 x65)) x63) x83)) (and (or x15 (or x27 (or x129 (or x38 x82)))) (or x86 (or (or x112 (or x38 x81)) x44))))) (and (or x97 (or x61 (or (or x48 x126) x134))) (or x88 (or (or (or x126 x125) x152) x26)))))) (and (and (or (or (or x62 (or x148 x41)) x99) x142) (or (or x89 (or (or x35 x127) x62)) x49)) (and (and (and (and (or (or x120 (or (or x16 x129) x108)) x50) (or (or (or x108 (or x67 x112)) x20) x102)) (and (or x2 (or (or (or x104 x78) x103) x76)) (or (or (or (or x53 x147) x103) x95) x157))) (and (or x5 (or (or (or x39 x156) x55) x11)) (or (or x69 (or (or x75 x128) x55)) x158))) (and (or (or (or (or x34 x134) x87) x144) x94) (or (or (or x87 (or x29 x152)) x57) x80))))) (and (and (or (or (or x99 (or x32 x137)) x119) x149) (or x12 (or x119 (or (or x23 x14) x89)))) (and (and (and (or x118 (or x72 (or x69 (or x154 x10)))) (or (or (or x11 (or x19 x51)) x72) x124)) (and (and (or x110 (or x40 (or (or x3 x44) x120))) (or (or x40 (or x20 (or x27 x115))) x123)) (and (or x122 (or x52 (or x76 (or x64 x145)))) (or x56 (or (or x95 (or x140 x63)) x52))))) (and (or (or (or x144 (or x26 x131)) x59) x105) (or x43 (or x59 (or x57 (or x71 x61)))))))) (and (and (or x85 (or (or (or x68 x58) x49) x149)) (or x85 (or x12 (or (or x31 x1) x142)))) (and (and (or (or (or (or x24 x88) x94) x43) x8) (or x8 (or x105 (or (or x7 x97) x80)))) (and (and (or x6 (or (or (or x9 x151) x5) x118)) (or (or (or (or x92 x54) x158) x124) x6)) (and (and (or x77 (or (or (or x155 x83) x157) x122)) (or x77 (or (or x2 (or x74 x116)) x56))) (and (or (or (or (or x15 x93) x102) x110) x98) (or (or x123 (or x50 (or x70 x86))) x98))))))))))
(assert (not (and (and (and (= x146 (x36 x79 x79)) (= x136 (x36 x146 x25))) (= x101 (x36 x146 x146))) (= x25 (x36 x101 x79)))))
(assert (not (and (and (= (x36 x136 x136) x101) (and (= (x36 x136 x146) x79) (= x136 (x36 x25 x25)))) (= x146 (x36 x101 x25)))))
(assert (not (and (and (and (= x79 (x36 x101 x101)) (= x25 (x36 x79 x136))) (= x146 (x36 x79 x79))) (= x136 (x36 x146 x101)))))
(assert (not (and (and (and (= (x36 x25 x136) x79) (= (x36 x146 x146) x25)) (= (x36 x25 x25) x101)) (= (x36 x101 x146) x136))))
(assert (not (and (and (= x146 (x36 x101 x101)) (and (= (x36 x101 x136) x25) (= x101 (x36 x79 x79)))) (= (x36 x146 x79) x136))))
(assert (not (and (= x101 (x36 x25 x79)) (and (= (x36 x146 x146) x25) (and (= (x36 x79 x79) x146) (= (x36 x146 x101) x136))))))
(assert (not (and (and (and (= x101 (x36 x79 x79)) (= x136 (x36 x101 x25))) (= (x36 x101 x101) x146)) (= (x36 x146 x79) x25))))
(assert (not (and (and (and (= x79 (x36 x136 x136)) (= x146 (x36 x79 x25))) (= (x36 x79 x79) x101)) (= x25 (x36 x101 x136)))))
(assert (not (and (= (x36 x146 x79) x136) (and (and (= (x36 x79 x79) x25) (= (x36 x25 x136) x101)) (= (x36 x25 x25) x146)))))
(assert (not (and (= x136 (x36 x101 x25)) (and (= x101 (x36 x79 x79)) (and (= (x36 x25 x25) x79) (= (x36 x79 x136) x146))))))
(assert (not (and (= x79 (x36 x25 x136)) (and (and (= x101 (x36 x146 x79)) (= x146 (x36 x136 x136))) (= x25 (x36 x146 x146))))))
(assert (not (and (and (and (= (x36 x136 x101) x79) (= (x36 x146 x146) x136)) (= (x36 x136 x136) x25)) (= (x36 x25 x146) x101))))
(assert (not (and (= x136 (x36 x79 x101)) (and (and (= x25 (x36 x101 x101)) (= (x36 x25 x136) x146)) (= x79 (x36 x25 x25))))))
(assert (not (and (and (and (= x146 (x36 x101 x79)) (= (x36 x136 x136) x101)) (= (x36 x101 x101) x25)) (= x79 (x36 x25 x136)))))
(assert (not (and (= (x36 x79 x136) x25) (and (= x79 (x36 x146 x146)) (and (= x101 (x36 x146 x25)) (= x146 (x36 x136 x136)))))))
(assert (not (and (and (= x101 (x36 x79 x79)) (and (= x79 (x36 x146 x146)) (= x136 (x36 x79 x25)))) (= (x36 x101 x146) x25))))
(assert (not (and (and (= x101 (x36 x25 x25)) (and (= (x36 x25 x79) x146) (= (x36 x136 x136) x25))) (= (x36 x101 x136) x79))))
(assert (not (and (= (x36 x146 x25) x101) (and (and (= (x36 x25 x25) x79) (= x136 (x36 x79 x101))) (= (x36 x79 x79) x146)))))
(assert (or (= (x36 x146 x146) x146) (or (= (x36 x25 x25) x25) (or (= (x36 x101 x101) x101) (or (= x79 (x36 x79 x79)) (= (x36 x136 x136) x136))))))
(assert (not (and (and (= (x36 x101 x101) x136) (and (= x146 (x36 x101 x79)) (= (x36 x25 x25) x101))) (= x79 (x36 x136 x25)))))
(assert (not (and (and (and (= x25 (x36 x101 x136)) (= (x36 x146 x146) x101)) (= (x36 x101 x101) x79)) (= (x36 x79 x146) x136))))
(assert (not (and (= x136 (x36 x146 x25)) (and (and (= x79 (x36 x25 x25)) (= x101 (x36 x79 x136))) (= x146 (x36 x79 x79))))))
(assert (and (and (and (and (or (or (= (x36 (x36 x25 x136) x136) x25) (or (= (x36 (x36 x101 x136) x136) x101) (or (= x136 (x36 (x36 x136 x136) x136)) (= (x36 (x36 x79 x136) x136) x79)))) (= x146 (x36 (x36 x146 x136) x136))) (or (or (or (= x101 (x36 (x36 x101 x79) x79)) (or (= (x36 (x36 x79 x79) x79) x79) (= x136 (x36 (x36 x136 x79) x79)))) (= (x36 (x36 x25 x79) x79) x25)) (= (x36 (x36 x146 x79) x79) x146))) (or (or (= x25 (x36 (x36 x25 x101) x101)) (or (= (x36 (x36 x101 x101) x101) x101) (or (= x79 (x36 (x36 x79 x101) x101)) (= x136 (x36 (x36 x136 x101) x101))))) (= (x36 (x36 x146 x101) x101) x146))) (or (= (x36 (x36 x146 x25) x25) x146) (or (or (= (x36 (x36 x101 x25) x25) x101) (or (= (x36 (x36 x79 x25) x25) x79) (= x136 (x36 (x36 x136 x25) x25)))) (= x25 (x36 (x36 x25 x25) x25))))) (or (or (or (= (x36 (x36 x101 x146) x146) x101) (or (= x79 (x36 (x36 x79 x146) x146)) (= x136 (x36 (x36 x136 x146) x146)))) (= x25 (x36 (x36 x25 x146) x146))) (= (x36 (x36 x146 x146) x146) x146))))
(assert (not (and (and (and (= (x36 x136 x136) x25) (= (x36 x25 x101) x146)) (= (x36 x25 x25) x79)) (= (x36 x79 x136) x101))))
(assert (not (and (= x101 (x36 x136 x146)) (and (and (= (x36 x146 x146) x79) (= x25 (x36 x79 x101))) (= x136 (x36 x79 x79))))))
(assert (not (and (= x101 (x36 x79 x146)) (and (= (x36 x25 x25) x79) (and (= x136 (x36 x25 x101)) (= (x36 x146 x146) x25))))))
(assert (not (and (= (x36 x146 x79) x101) (and (= (x36 x25 x25) x146) (and (= x136 (x36 x25 x101)) (= x25 (x36 x79 x79)))))))
(assert (not (and (and (= x101 (x36 x79 x79)) (and (= x79 (x36 x25 x25)) (= x136 (x36 x79 x146)))) (= (x36 x101 x25) x146))))
(assert (not (and (and (= x136 (x36 x79 x79)) (and (= (x36 x101 x101) x79) (= (x36 x79 x25) x146))) (= x25 (x36 x136 x101)))))
(assert (or (or (or (and (and (not (= x25 (x36 x101 x25))) (and (and (not (= x79 (x36 x101 x79))) (not (= x136 (x36 x101 x136)))) (not (= (x36 x101 x101) x101)))) (not (= (x36 x101 x146) x146))) (or (and (not (= (x36 x79 x146) x146)) (and (not (= x25 (x36 x79 x25))) (and (not (= (x36 x79 x101) x101)) (and (not (= (x36 x79 x136) x136)) (not (= (x36 x79 x79) x79)))))) (and (and (not (= x25 (x36 x136 x25))) (and (not (= (x36 x136 x101) x101)) (and (not (= x136 (x36 x136 x136))) (not (= (x36 x136 x79) x79))))) (not (= x146 (x36 x136 x146)))))) (and (and (not (= (x36 x25 x25) x25)) (and (and (not (= (x36 x25 x136) x136)) (not (= (x36 x25 x79) x79))) (not (= (x36 x25 x101) x101)))) (not (= (x36 x25 x146) x146)))) (and (not (= (x36 x146 x146) x146)) (and (and (and (not (= x136 (x36 x146 x136))) (not (= x79 (x36 x146 x79)))) (not (= (x36 x146 x101) x101))) (not (= x25 (x36 x146 x25)))))))
(assert (let ((x53 (x36 x79 x79)) (x112 (x36 x25 x79)) (x39 (x36 x25 x101)) (x84 (x36 x136 x79)) (x141 (x36 x136 x136)) (x148 (x36 x146 x25)) (x48 (x36 x101 x136)) (x67 (x36 x79 x25)) (x156 (x36 x101 x25)) (x138 (x36 x146 x136)) (x75 (x36 x101 x146)) (x4 (x36 x79 x146)) (x128 (x36 x146 x101)) (x47 (x36 x101 x101)) (x3 (x36 x146 x146)) (x41 (x36 x25 x146)) (x135 (x36 x136 x101)) (x78 (x36 x79 x101)) (x127 (x36 x25 x25)) (x103 (x36 x101 x79)) (x125 (x36 x136 x25)) (x45 (x36 x79 x136)) (x130 (x36 x146 x79)) (x91 (x36 x136 x146)) (x126 (x36 x25 x136))) (let ((x33 (not (= x136 x48))) (x37 (not (= x136 x67))) (x31 (not (= x138 x146))) (x108 (not (= x79 x78))) (x42 (not (= x45 x79))) (x57 (not (= x101 x128))) (x117 (not (= x45 x136))) (x81 (not (= x136 x148))) (x28 (not (= x39 x136))) (x157 (not (= x125 x25))) (x104 (not (= x53 x79))) (x99 (not (= x101 x3))) (x102 (not (= x128 x25))) (x64 (not (= x79 x91))) (x111 (not (= x128 x136))) (x87 (not (= x156 x79))) (x55 (not (= x79 x126))) (x143 (not (= x75 x136))) (x150 (not (= x78 x101))) (x13 (not (= x79 x141))) (x144 (not (= x101 x91))) (x11 (not (= x101 x39))) (x74 (not (= x135 x25))) (x119 (not (= x53 x25))) (x49 (not (= x148 x146))) (x121 (not (= x112 x136))) (x35 (not (= x79 x127))) (x27 (not (= x48 x101))) (x10 (not (= x47 x101))) (x70 (not (= x39 x25))) (x158 (not (= x141 x146))) (x107 (not (= x78 x136))) (x153 (not (= x141 x136))) (x65 (not (= x136 x138))) (x19 (not (= x112 x101))) (x61 (not (= x101 x4))) (x59 (not (= x101 x75))) (x134 (not (= x79 x39))) (x120 (not (= x141 x101))) (x9 (not (= x53 x146))) (x22 (not (= x45 x101))) (x23 (not (= x141 x25))) (x96 (not (= x136 x125))) (x69 (not (= x125 x101))) (x93 (not (= x25 x130))) (x94 (not (= x126 x146))) (x139 (not (= x47 x136))) (x15 (not (= x25 x4))) (x145 (not (= x130 x79))) (x44 (not (= x3 x79))) (x109 (not (= x101 x84))) (x54 (not (= x41 x25))) (x1 (not (= x91 x146))) (x56 (not (= x78 x25))) (x30 (not (= x136 x3))) (x32 (not (= x41 x101))) (x118 (not (= x135 x146))) (x131 (not (= x101 x127))) (x152 (not (= x112 x79))) (x40 (not (= x101 x103))) (x62 (not (= x79 x138))) (x34 (not (= x79 x67))) (x2 (not (= x25 x103))) (x124 (not (= x146 x45))) (x26 (not (= x101 x138))) (x129 (not (= x103 x79))) (x60 (not (= x136 x130))) (x43 (not (= x125 x146))) (x73 (not (= x136 x127))) (x115 (not (= x101 x53))) (x12 (not (= x146 x4))) (x155 (not (= x25 x47))) (x24 (not (= x146 x78))) (x6 (not (= x103 x146))) (x7 (not (= x112 x146))) (x85 (not (= x146 x3))) (x151 (not (= x146 x84))) (x92 (not (= x25 x3))) (x17 (not (= x135 x136))) (x98 (not (= x25 x148))) (x83 (not (= x126 x25))) (x86 (not (= x25 x156))) (x142 (not (= x130 x146))) (x137 (not (= x148 x101))) (x5 (not (= x146 x48))) (x123 (not (= x138 x25))) (x63 (not (= x79 x75))) (x77 (not (= x67 x25))) (x68 (not (= x75 x146))) (x106 (not (= x79 x47))) (x89 (not (= x25 x84))) (x76 (not (= x79 x4))) (x82 (not (= x136 x91))) (x20 (not (= x135 x101))) (x71 (not (= x101 x130))) (x16 (not (= x135 x79))) (x29 (not (= x125 x79))) (x50 (not (= x127 x25))) (x58 (not (= x146 x128))) (x133 (not (= x156 x136))) (x95 (not (= x148 x79))) (x72 (not (= x101 x156))) (x114 (not (= x48 x79))) (x154 (not (= x101 x126))) (x80 (not (= x39 x146))) (x113 (not (= x91 x25))) (x21 (not (= x136 x126))) (x38 (not (= x136 x41))) (x122 (not (= x25 x112))) (x88 (not (= x146 x47))) (x140 (not (= x79 x128))) (x97 (not (= x67 x146))) (x132 (not (= x136 x4))) (x147 (not (= x79 x84))) (x51 (not (= x67 x101))) (x66 (not (= x136 x84))) (x110 (not (= x75 x25))) (x52 (not (= x79 x41))) (x100 (not (= x136 x103))) (x46 (not (= x136 x53))) (x8 (not (= x146 x127))) (x149 (not (= x41 x146))) (x116 (not (= x25 x48))) (x105 (not (= x156 x146))) (x14 (not (= x25 x45)))) (or (and (and (and (or x49 x149) (and (or x58 x68) (and (or x31 x1) (or x12 x142)))) (or x85 x85)) (and (and (and (and (or x105 x80) (and (and (or x5 x118) (or x6 x24)) (or x88 x88))) (or x58 x68)) (and (and (or x31 x1) (and (and (and (or x158 x158) (or x151 x124)) (or x5 x118)) (or x94 x43))) (and (or x12 x142) (and (or x97 x7) (and (and (or x124 x151) (or x9 x9)) (or x24 x6)))))) (and (or x49 x149) (and (or x8 x8) (and (and (or x97 x7) (or x43 x94)) (or x80 x105)))))) (or (or (or (and (and (and (or x38 x81) (and (and (or x28 x133) (and (or x121 x37) (or x96 x21))) (or x73 x73))) (and (and (and (or x82 x65) (and (and (and (or x153 x153) (or x117 x66)) (or x33 x17)) (or x21 x96))) (and (and (and (or x100 x107) (and (or x46 x46) (or x66 x117))) (or x37 x121)) (or x60 x132))) (and (and (or x28 x133) (and (and (or x100 x107) (or x33 x17)) (or x139 x139))) (or x143 x111)))) (and (or x30 x30) (and (and (or x143 x111) (and (or x65 x82) (or x60 x132))) (or x38 x81)))) (and (and (and (and (and (and (or x55 x29) (and (and (or x13 x13) (or x42 x147)) (or x16 x114))) (or x64 x62)) (and (and (and (and (or x104 x104) (or x147 x42)) (or x129 x108)) (or x34 x152)) (or x145 x76))) (and (or x140 x63) (and (and (or x106 x106) (and (or x114 x16) (or x129 x108))) (or x134 x87)))) (and (or x52 x95) (and (and (or x134 x87) (and (or x34 x152) (or x55 x29))) (or x35 x35)))) (and (or x44 x44) (and (and (or x140 x63) (and (or x145 x76) (or x62 x64))) (or x52 x95))))) (and (and (and (or x137 x32) (and (or x59 x57) (and (or x144 x26) (or x71 x61)))) (or x99 x99)) (and (and (and (or x59 x57) (and (and (and (or x150 x40) (or x27 x20)) (or x10 x10)) (or x72 x11))) (and (and (or x26 x144) (and (and (or x20 x27) (and (or x22 x109) (or x120 x120))) (or x69 x154))) (and (or x61 x71) (and (or x51 x19) (and (and (or x115 x115) (or x22 x109)) (or x150 x40)))))) (and (or x137 x32) (and (and (and (or x69 x154) (or x51 x19)) (or x11 x72)) (or x131 x131)))))) (and (and (and (or x98 x54) (and (or x50 x50) (and (or x86 x70) (and (or x77 x122) (or x157 x83))))) (and (and (and (and (or x122 x77) (and (and (or x14 x89) (or x119 x119)) (or x56 x2))) (or x15 x93)) (and (and (or x83 x157) (and (and (or x89 x14) (or x23 x23)) (or x116 x74))) (or x123 x113))) (and (or x102 x110) (and (or x70 x86) (and (or x155 x155) (and (or x74 x116) (or x2 x56))))))) (and (and (and (or x110 x102) (and (or x15 x93) (or x113 x123))) (or x54 x98)) (or x92 x92))))))))
(assert (not (and (and (and (= (x36 x101 x101) x146) (= x136 (x36 x146 x79))) (= (x36 x146 x146) x25)) (= (x36 x25 x101) x79))))
(assert (not (and (= x101 (x36 x25 x146)) (and (= (x36 x79 x79) x25) (and (= (x36 x79 x101) x136) (= x79 (x36 x146 x146)))))))
(assert (not (and (and (= x136 (x36 x25 x25)) (and (= (x36 x25 x79) x146) (= (x36 x101 x101) x25))) (= (x36 x136 x101) x79))))
(assert (not (and (= x136 (x36 x25 x146)) (and (= (x36 x79 x79) x25) (and (= x101 (x36 x79 x136)) (= (x36 x146 x146) x79))))))
(assert (not (and (= x136 (x36 x101 x146)) (and (and (= (x36 x146 x146) x79) (= (x36 x79 x136) x25)) (= x101 (x36 x79 x79))))))
(assert (not (and (= x101 (x36 x25 x79)) (and (= x25 (x36 x136 x136)) (and (= x136 (x36 x79 x79)) (= (x36 x136 x101) x146))))))
(assert (let ((x121 (x36 x101 x79)) (x82 (x36 x25 x101)) (x107 (x36 x79 x101)) (x65 (x36 x25 x79)) (x132 (x36 x25 x146)) (x33 (x36 x136 x146)) (x21 (x36 x79 x146)) (x37 (x36 x101 x101)) (x111 (x36 x146 x136)) (x96 (x36 x101 x136)) (x46 (x36 x136 x25)) (x28 (x36 x101 x25)) (x60 (x36 x25 x25)) (x143 (x36 x146 x79)) (x73 (x36 x25 x136)) (x38 (x36 x146 x25)) (x133 (x36 x101 x146)) (x153 (x36 x136 x136)) (x17 (x36 x79 x136)) (x139 (x36 x79 x25)) (x81 (x36 x146 x101)) (x66 (x36 x136 x101)) (x100 (x36 x79 x79)) (x117 (x36 x136 x79)) (x30 (x36 x146 x146))) (and (and (and (and (and (and (and (and (or (or (or (= x153 x101) (or (= x153 x79) (= x153 x136))) (= x25 x153)) (= x153 x146)) (or (= x117 x146) (or (= x25 x117) (or (= x117 x101) (or (= x117 x136) (= x79 x117)))))) (or (or (or (= x66 x101) (or (= x66 x79) (= x136 x66))) (= x25 x66)) (= x146 x66))) (or (or (or (= x101 x46) (or (= x46 x136) (= x46 x79))) (= x46 x25)) (= x46 x146))) (or (= x33 x146) (or (or (= x101 x33) (or (= x79 x33) (= x136 x33))) (= x33 x25)))) (and (or (= x21 x146) (or (= x25 x21) (or (or (= x21 x79) (= x21 x136)) (= x101 x21)))) (and (and (or (or (= x25 x107) (or (= x101 x107) (or (= x107 x79) (= x136 x107)))) (= x146 x107)) (and (or (= x146 x100) (or (= x25 x100) (or (= x101 x100) (or (= x100 x136) (= x100 x79))))) (or (= x17 x146) (or (= x17 x25) (or (= x17 x101) (or (= x17 x136) (= x79 x17))))))) (or (or (= x25 x139) (or (= x101 x139) (or (= x79 x139) (= x136 x139)))) (= x139 x146))))) (and (or (or (or (= x101 x133) (or (= x136 x133) (= x133 x79))) (= x133 x25)) (= x146 x133)) (and (or (= x28 x146) (or (= x25 x28) (or (= x28 x101) (or (= x79 x28) (= x136 x28))))) (and (or (or (= x25 x37) (or (or (= x37 x79) (= x136 x37)) (= x37 x101))) (= x37 x146)) (and (or (or (or (or (= x121 x79) (= x121 x136)) (= x101 x121)) (= x121 x25)) (= x146 x121)) (or (= x146 x96) (or (or (= x96 x101) (or (= x79 x96) (= x96 x136))) (= x25 x96)))))))) (and (and (and (and (or (or (= x25 x65) (or (= x101 x65) (or (= x65 x136) (= x79 x65)))) (= x65 x146)) (or (or (= x25 x73) (or (= x73 x101) (or (= x73 x136) (= x73 x79)))) (= x146 x73))) (or (= x82 x146) (or (= x82 x25) (or (or (= x82 x79) (= x136 x82)) (= x101 x82))))) (or (= x60 x146) (or (or (or (= x60 x79) (= x60 x136)) (= x101 x60)) (= x60 x25)))) (or (= x132 x146) (or (or (= x101 x132) (or (= x132 x136) (= x79 x132))) (= x25 x132))))) (and (and (and (or (or (or (= x101 x81) (or (= x79 x81) (= x136 x81))) (= x25 x81)) (= x146 x81)) (and (or (or (= x25 x111) (or (= x111 x101) (or (= x111 x136) (= x111 x79)))) (= x146 x111)) (or (or (= x25 x143) (or (or (= x143 x136) (= x79 x143)) (= x101 x143))) (= x146 x143)))) (or (= x38 x146) (or (= x25 x38) (or (= x38 x101) (or (= x79 x38) (= x136 x38)))))) (or (= x30 x146) (or (or (or (= x79 x30) (= x30 x136)) (= x30 x101)) (= x25 x30)))))))
(assert (not (and (and (and (= (x36 x136 x136) x146) (= x79 (x36 x146 x25))) (= x101 (x36 x146 x146))) (= x25 (x36 x101 x136)))))
(assert (not (and (and (= (x36 x101 x101) x79) (and (= x25 (x36 x101 x146)) (= x101 (x36 x136 x136)))) (= x146 (x36 x79 x136)))))
(assert (not (and (= x136 (x36 x146 x25)) (and (= x146 (x36 x101 x101)) (and (= x79 (x36 x101 x136)) (= x101 (x36 x25 x25)))))))
(assert (not (and (and (= x79 (x36 x136 x136)) (and (= x136 (x36 x101 x101)) (= (x36 x136 x146) x25))) (= x146 (x36 x79 x101)))))
(assert (not (and (and (and (= x146 (x36 x25 x25)) (= x136 (x36 x146 x101))) (= (x36 x146 x146) x79)) (= (x36 x79 x25) x101))))
(assert (not (and (= (x36 x146 x101) x79) (and (= (x36 x25 x25) x146) (and (= (x36 x25 x79) x136) (= x25 (x36 x101 x101)))))))
(assert (not (and (= x79 (x36 x146 x136)) (and (= (x36 x25 x25) x146) (and (= (x36 x136 x136) x25) (= (x36 x25 x79) x101))))))
(assert (not (and (and (= x101 (x36 x136 x136)) (and (= x136 (x36 x25 x25)) (= x146 (x36 x136 x79)))) (= (x36 x101 x25) x79))))
(assert (not (and (= x79 (x36 x146 x25)) (and (and (= x101 (x36 x136 x79)) (= (x36 x25 x25) x136)) (= x146 (x36 x136 x136))))))
(assert (not (and (= x101 (x36 x25 x136)) (and (and (= (x36 x136 x136) x146) (= (x36 x146 x101) x79)) (= (x36 x146 x146) x25)))))
(assert (not (and (and (and (= (x36 x25 x25) x146) (= x101 (x36 x146 x136))) (= x79 (x36 x146 x146))) (= (x36 x79 x25) x136))))
(assert (not (and (and (and (= x25 (x36 x101 x101)) (= (x36 x25 x146) x136)) (= x79 (x36 x25 x25))) (= x146 (x36 x79 x101)))))
(assert (not (and (and (= x136 (x36 x79 x79)) (and (= (x36 x146 x146) x79) (= (x36 x79 x25) x101))) (= x25 (x36 x136 x146)))))
(assert (not (and (and (and (= (x36 x136 x101) x25) (= (x36 x79 x79) x136)) (= (x36 x136 x136) x146)) (= x101 (x36 x146 x79)))))
(assert (or (or (or (or (not (= x79 (x36 x79 (x36 x79 x79)))) (not (= x136 (x36 x136 (x36 x136 x136))))) (not (= (x36 x101 (x36 x101 x101)) x101))) (not (= (x36 x25 (x36 x25 x25)) x25))) (not (= x146 (x36 x146 (x36 x146 x146))))))
(assert (not (and (and (= (x36 x25 x25) x146) (and (= x25 (x36 x136 x136)) (= (x36 x25 x101) x79))) (= (x36 x146 x136) x101))))
(assert (not (and (and (= (x36 x79 x79) x25) (and (= x146 (x36 x79 x136)) (= (x36 x101 x101) x79))) (= (x36 x25 x101) x136))))
(assert (and (or (= (x36 x146 (x36 x146 x146)) x146) (or (or (or (= x79 (x36 x146 (x36 x146 x79))) (= x136 (x36 x146 (x36 x146 x136)))) (= (x36 x146 (x36 x146 x101)) x101)) (= (x36 x146 (x36 x146 x25)) x25))) (and (or (or (= (x36 x25 (x36 x25 x25)) x25) (or (= (x36 x25 (x36 x25 x101)) x101) (or (= x136 (x36 x25 (x36 x25 x136))) (= (x36 x25 (x36 x25 x79)) x79)))) (= (x36 x25 (x36 x25 x146)) x146)) (and (or (= x146 (x36 x101 (x36 x101 x146))) (or (= (x36 x101 (x36 x101 x25)) x25) (or (= x101 (x36 x101 (x36 x101 x101))) (or (= (x36 x101 (x36 x101 x79)) x79) (= x136 (x36 x101 (x36 x101 x136))))))) (and (or (= x146 (x36 x136 (x36 x136 x146))) (or (or (or (= x79 (x36 x136 (x36 x136 x79))) (= (x36 x136 (x36 x136 x136)) x136)) (= (x36 x136 (x36 x136 x101)) x101)) (= (x36 x136 (x36 x136 x25)) x25))) (or (or (or (or (= (x36 x79 (x36 x79 x136)) x136) (= x79 (x36 x79 (x36 x79 x79)))) (= (x36 x79 (x36 x79 x101)) x101)) (= (x36 x79 (x36 x79 x25)) x25)) (= x146 (x36 x79 (x36 x79 x146)))))))))
(assert (not (and (and (and (= (x36 x136 x136) x79) (= (x36 x79 x101) x146)) (= (x36 x79 x79) x25)) (= (x36 x25 x136) x101))))
(assert (not (and (= (x36 x146 x136) x25) (and (and (= (x36 x136 x136) x79) (= (x36 x79 x25) x101)) (= (x36 x79 x79) x146)))))
(assert (not (and (= x101 (x36 x146 x25)) (and (and (= x79 (x36 x136 x101)) (= (x36 x25 x25) x136)) (= (x36 x136 x136) x146)))))
(assert (not (and (and (= x79 (x36 x146 x146)) (and (= x25 (x36 x146 x101)) (= x146 (x36 x136 x136)))) (= x101 (x36 x79 x136)))))
(assert (not (and (and (= x25 (x36 x136 x136)) (and (= x136 (x36 x79 x79)) (= x101 (x36 x136 x146)))) (= (x36 x25 x79) x146))))
(assert (not (and (and (and (= x146 (x36 x136 x136)) (= (x36 x146 x79) x25)) (= (x36 x146 x146) x101)) (= x79 (x36 x101 x136)))))
(assert (not (and (and (and (= (x36 x136 x25) x101) (= x136 (x36 x146 x146))) (= (x36 x136 x136) x79)) (= (x36 x79 x146) x25))))
(assert (not (and (= (x36 x136 x79) x101) (and (= x136 (x36 x146 x146)) (and (= x146 (x36 x79 x79)) (= x25 (x36 x146 x101)))))))
(assert (not (and (and (and (= (x36 x101 x25) x136) (= (x36 x146 x146) x101)) (= x79 (x36 x101 x101))) (= (x36 x79 x146) x25))))
(assert (not (and (= x146 (x36 x101 x136)) (and (and (= x25 (x36 x136 x136)) (= (x36 x25 x146) x79)) (= (x36 x25 x25) x101)))))
(assert (not (and (= (x36 x146 x136) x25) (and (and (= (x36 x136 x136) x101) (= (x36 x101 x25) x79)) (= (x36 x101 x101) x146)))))
(assert (not (and (= x146 (x36 x101 x79)) (and (and (= (x36 x79 x79) x25) (= (x36 x25 x146) x136)) (= x101 (x36 x25 x25))))))
(check-sat)
(exit)
